language ESSENCE' 1.0
letting initGrid be [
    [1, 1, 2, 2, 3, 2],
[2, 1, 4, 3, 1, 1],
[4, 5, 4, 2, 5, 3],
[1, 2, 3, 5, 5, 3],
[2, 1, 4, 4, 2, 3]
    ]
letting goalBlocksRemaining be 15
letting noSteps be 7
